Version identifier: 20.1.0.0 | 2020-11-10 | 9bedb6d68
Tried aggregator 2 times.
MIP Presolve eliminated 279 rows and 247 columns.
Aggregator did 7 substitutions.
Reduced MIP has 17 rows, 20 columns, and 39 nonzeros.
Reduced MIP has 12 binaries, 0 generals, 0 SOSs, and 0 indicators.
Presolve time = 0.00 sec. (0.34 ticks)
Found incumbent of value 3.797955 after 0.00 sec. (0.39 ticks)
Probing fixed 0 vars, tightened 4 bounds.
Probing changed sense of 4 constraints.
Probing time = 0.00 sec. (0.02 ticks)
Cover probing fixed 0 vars, tightened 1 bounds.
Tried aggregator 1 time.
MIP Presolve eliminated 19 rows and 19 columns.
MIP Presolve added 2 rows and 0 columns.
MIP Presolve modified 3 coefficients.
All rows and columns eliminated.
Presolve time = 0.00 sec. (0.01 ticks)

Root node processing (before b&c):
  Real time             =    0.00 sec. (1.41 ticks)
Parallel b&c, 10 threads:
  Real time             =    0.00 sec. (0.00 ticks)
  Sync time (average)   =    0.00 sec.
  Wait time (average)   =    0.00 sec.
                          ------------
Total (root+branch&cut) =    0.00 sec. (1.41 ticks)
